(set-info :smt-lib-version 2.6)
(set-logic UFLIA)
(set-info :source |
Generated by: Pierre Carbonnelle
Generated on: 2026-04-28
Generator: https://github.com/xmt-lib/benchmarks
Application: test of grounders
Target solver: Z3
Publications: https://arxiv.org/abs/2602.19102
Time limit: 300
Order-Preserving Pattern Matching
From the DIRT benchmark used to evaluate grounders
|)
(set-info :license "https://creativecommons.org/licenses/by/4.0/")
(set-info :category "crafted")
(set-info :status sat)

(define-fun number ((x Int)) Bool (<= 1 x 350))
(define-fun smallnumber ((x Int)) Bool (<= 1 x 175))

(define-fun pf ((x Int)) Int (ite (= x 1) 18
  (ite (= x 2) 151
  (ite (= x 3) 27
  (ite (= x 4) 133
  (ite (= x 5) 61
  (ite (= x 6) 32
  (ite (= x 7) 30
  (ite (= x 8) 80
  (ite (= x 9) 170
  (ite (= x 10) 141
  (ite (= x 11) 44
  (ite (= x 12) 135
  (ite (= x 13) 45
  (ite (= x 14) 131
  (ite (= x 15) 72
  (ite (= x 16) 166
  (ite (= x 17) 87
  (ite (= x 18) 111
  (ite (= x 19) 46
  (ite (= x 20) 122
  (ite (= x 21) 82
  (ite (= x 22) 68
  (ite (= x 23) 138
  (ite (= x 24) 71
  (ite (= x 25) 158
  (ite (= x 26) 95
  (ite (= x 27) 153
  (ite (= x 28) 76
  (ite (= x 29) 172
  (ite (= x 30) 129
  (ite (= x 31) 128
  (ite (= x 32) 19
  (ite (= x 33) 96
  (ite (= x 34) 1
  (ite (= x 35) 25
  (ite (= x 36) 134
  (ite (= x 37) 107
  (ite (= x 38) 97
  (ite (= x 39) 161
  (ite (= x 40) 6
  (ite (= x 41) 93
  (ite (= x 42) 39
  (ite (= x 43) 60
  (ite (= x 44) 57
  (ite (= x 45) 149
  (ite (= x 46) 99
  (ite (= x 47) 109
  (ite (= x 48) 81
  (ite (= x 49) 155
  (ite (= x 50) 73
  (ite (= x 51) 21
  (ite (= x 52) 49
  (ite (= x 53) 173
  (ite (= x 54) 51
  (ite (= x 55) 63
  (ite (= x 56) 127
  (ite (= x 57) 78
  (ite (= x 58) 83
  (ite (= x 59) 118
  (ite (= x 60) 92
  (ite (= x 61) 23
  (ite (= x 62) 98
  (ite (= x 63) 156
  (ite (= x 64) 36
  (ite (= x 65) 33
  (ite (= x 66) 169
  (ite (= x 67) 163
  (ite (= x 68) 42
  (ite (= x 69) 14
  (ite (= x 70) 157
  (ite (= x 71) 40
  (ite (= x 72) 31
  (ite (= x 73) 12
  (ite (= x 74) 115
  (ite (= x 75) 147
  (ite (= x 76) 17
  (ite (= x 77) 148
  (ite (= x 78) 8
  (ite (= x 79) 22
  (ite (= x 80) 4
  (ite (= x 81) 90
  (ite (= x 82) 37
  (ite (= x 83) 88
  (ite (= x 84) 94
  (ite (= x 85) 65
  (ite (= x 86) 9
  (ite (= x 87) 66
  (ite (= x 88) 112
  (ite (= x 89) 160
  (ite (= x 90) 101
  (ite (= x 91) 136
  (ite (= x 92) 69
  (ite (= x 93) 124
  (ite (= x 94) 142
  (ite (= x 95) 52
  (ite (= x 96) 106
  (ite (= x 97) 114
  (ite (= x 98) 13
  (ite (= x 99) 139
  (ite (= x 100) 143
  (ite (= x 101) 171
  (ite (= x 102) 121
  (ite (= x 103) 146
  (ite (= x 104) 5
  (ite (= x 105) 50
  (ite (= x 106) 62
  (ite (= x 107) 59
  (ite (= x 108) 104
  (ite (= x 109) 152
  (ite (= x 110) 167
  (ite (= x 111) 120
  (ite (= x 112) 84
  (ite (= x 113) 35
  (ite (= x 114) 24
  (ite (= x 115) 117
  (ite (= x 116) 16
  (ite (= x 117) 15
  (ite (= x 118) 3
  (ite (= x 119) 64
  (ite (= x 120) 144
  (ite (= x 121) 119
  (ite (= x 122) 26
  (ite (= x 123) 41
  (ite (= x 124) 74
  (ite (= x 125) 55
  (ite (= x 126) 53
  (ite (= x 127) 34
  (ite (= x 128) 110
  (ite (= x 129) 175
  (ite (= x 130) 58
  (ite (= x 131) 100
  (ite (= x 132) 105
  (ite (= x 133) 47
  (ite (= x 134) 132
  (ite (= x 135) 75
  (ite (= x 136) 165
  (ite (= x 137) 108
  (ite (= x 138) 113
  (ite (= x 139) 162
  (ite (= x 140) 54
  (ite (= x 141) 145
  (ite (= x 142) 86
  (ite (= x 143) 130
  (ite (= x 144) 123
  (ite (= x 145) 48
  (ite (= x 146) 164
  (ite (= x 147) 85
  (ite (= x 148) 20
  (ite (= x 149) 159
  (ite (= x 150) 168
  (ite (= x 151) 137
  (ite (= x 152) 126
  (ite (= x 153) 140
  (ite (= x 154) 70
  (ite (= x 155) 102
  (ite (= x 156) 67
  (ite (= x 157) 77
  (ite (= x 158) 89
  (ite (= x 159) 116
  (ite (= x 160) 91
  (ite (= x 161) 154
  (ite (= x 162) 56
  (ite (= x 163) 174
  (ite (= x 164) 28
  (ite (= x 165) 11
  (ite (= x 166) 38
  (ite (= x 167) 79
  (ite (= x 168) 10
  (ite (= x 169) 125
  (ite (= x 170) 29
  (ite (= x 171) 43
  (ite (= x 172) 7
  (ite (= x 173) 150
  (ite (= x 174) 2
  (ite (= x 175) 103
  0))))))))))))))))))))))))))))))))))))))))))))))))))))))))))))))))))))))))))))))))))))))))))))))))))))))))))))))))))))))))))))))))))))))))))))))))))))))))))))))))))))))))))))))))
(define-fun tf ((x Int)) Int (ite (= x 1) 262
  (ite (= x 2) 70
  (ite (= x 3) 153
  (ite (= x 4) 209
  (ite (= x 5) 133
  (ite (= x 6) 232
  (ite (= x 7) 269
  (ite (= x 8) 238
  (ite (= x 9) 90
  (ite (= x 10) 284
  (ite (= x 11) 23
  (ite (= x 12) 46
  (ite (= x 13) 32
  (ite (= x 14) 170
  (ite (= x 15) 275
  (ite (= x 16) 119
  (ite (= x 17) 26
  (ite (= x 18) 226
  (ite (= x 19) 118
  (ite (= x 20) 102
  (ite (= x 21) 139
  (ite (= x 22) 317
  (ite (= x 23) 190
  (ite (= x 24) 253
  (ite (= x 25) 202
  (ite (= x 26) 155
  (ite (= x 27) 121
  (ite (= x 28) 120
  (ite (= x 29) 123
  (ite (= x 30) 135
  (ite (= x 31) 265
  (ite (= x 32) 192
  (ite (= x 33) 182
  (ite (= x 34) 201
  (ite (= x 35) 19
  (ite (= x 36) 329
  (ite (= x 37) 184
  (ite (= x 38) 293
  (ite (= x 39) 179
  (ite (= x 40) 168
  (ite (= x 41) 73
  (ite (= x 42) 108
  (ite (= x 43) 115
  (ite (= x 44) 60
  (ite (= x 45) 176
  (ite (= x 46) 187
  (ite (= x 47) 24
  (ite (= x 48) 82
  (ite (= x 49) 330
  (ite (= x 50) 310
  (ite (= x 51) 189
  (ite (= x 52) 240
  (ite (= x 53) 85
  (ite (= x 54) 270
  (ite (= x 55) 203
  (ite (= x 56) 258
  (ite (= x 57) 100
  (ite (= x 58) 178
  (ite (= x 59) 233
  (ite (= x 60) 93
  (ite (= x 61) 162
  (ite (= x 62) 27
  (ite (= x 63) 339
  (ite (= x 64) 346
  (ite (= x 65) 228
  (ite (= x 66) 112
  (ite (= x 67) 328
  (ite (= x 68) 247
  (ite (= x 69) 157
  (ite (= x 70) 117
  (ite (= x 71) 242
  (ite (= x 72) 252
  (ite (= x 73) 224
  (ite (= x 74) 137
  (ite (= x 75) 244
  (ite (= x 76) 45
  (ite (= x 77) 72
  (ite (= x 78) 78
  (ite (= x 79) 58
  (ite (= x 80) 136
  (ite (= x 81) 63
  (ite (= x 82) 69
  (ite (= x 83) 141
  (ite (= x 84) 138
  (ite (= x 85) 109
  (ite (= x 86) 234
  (ite (= x 87) 148
  (ite (= x 88) 287
  (ite (= x 89) 197
  (ite (= x 90) 92
  (ite (= x 91) 151
  (ite (= x 92) 251
  (ite (= x 93) 296
  (ite (= x 94) 111
  (ite (= x 95) 337
  (ite (= x 96) 219
  (ite (= x 97) 290
  (ite (= x 98) 14
  (ite (= x 99) 96
  (ite (= x 100) 186
  (ite (= x 101) 113
  (ite (= x 102) 248
  (ite (= x 103) 271
  (ite (= x 104) 295
  (ite (= x 105) 59
  (ite (= x 106) 227
  (ite (= x 107) 165
  (ite (= x 108) 101
  (ite (= x 109) 185
  (ite (= x 110) 9
  (ite (= x 111) 140
  (ite (= x 112) 80
  (ite (= x 113) 105
  (ite (= x 114) 130
  (ite (= x 115) 214
  (ite (= x 116) 125
  (ite (= x 117) 266
  (ite (= x 118) 47
  (ite (= x 119) 76
  (ite (= x 120) 183
  (ite (= x 121) 217
  (ite (= x 122) 257
  (ite (= x 123) 53
  (ite (= x 124) 31
  (ite (= x 125) 37
  (ite (= x 126) 250
  (ite (= x 127) 7
  (ite (= x 128) 83
  (ite (= x 129) 223
  (ite (= x 130) 301
  (ite (= x 131) 207
  (ite (= x 132) 166
  (ite (= x 133) 172
  (ite (= x 134) 44
  (ite (= x 135) 36
  (ite (= x 136) 20
  (ite (= x 137) 285
  (ite (= x 138) 229
  (ite (= x 139) 160
  (ite (= x 140) 163
  (ite (= x 141) 215
  (ite (= x 142) 196
  (ite (= x 143) 318
  (ite (= x 144) 91
  (ite (= x 145) 169
  (ite (= x 146) 274
  (ite (= x 147) 49
  (ite (= x 148) 116
  (ite (= x 149) 348
  (ite (= x 150) 18
  (ite (= x 151) 104
  (ite (= x 152) 149
  (ite (= x 153) 84
  (ite (= x 154) 77
  (ite (= x 155) 164
  (ite (= x 156) 147
  (ite (= x 157) 188
  (ite (= x 158) 222
  (ite (= x 159) 5
  (ite (= x 160) 272
  (ite (= x 161) 13
  (ite (= x 162) 15
  (ite (= x 163) 25
  (ite (= x 164) 42
  (ite (= x 165) 67
  (ite (= x 166) 167
  (ite (= x 167) 323
  (ite (= x 168) 64
  (ite (= x 169) 87
  (ite (= x 170) 99
  (ite (= x 171) 35
  (ite (= x 172) 114
  (ite (= x 173) 316
  (ite (= x 174) 11
  (ite (= x 175) 61
  (ite (= x 176) 173
  (ite (= x 177) 243
  (ite (= x 178) 65
  (ite (= x 179) 350
  (ite (= x 180) 311
  (ite (= x 181) 312
  (ite (= x 182) 48
  (ite (= x 183) 331
  (ite (= x 184) 81
  (ite (= x 185) 313
  (ite (= x 186) 291
  (ite (= x 187) 334
  (ite (= x 188) 3
  (ite (= x 189) 263
  (ite (= x 190) 267
  (ite (= x 191) 324
  (ite (= x 192) 142
  (ite (= x 193) 239
  (ite (= x 194) 154
  (ite (= x 195) 221
  (ite (= x 196) 218
  (ite (= x 197) 208
  (ite (= x 198) 264
  (ite (= x 199) 158
  (ite (= x 200) 249
  (ite (= x 201) 54
  (ite (= x 202) 211
  (ite (= x 203) 29
  (ite (= x 204) 95
  (ite (= x 205) 89
  (ite (= x 206) 145
  (ite (= x 207) 50
  (ite (= x 208) 341
  (ite (= x 209) 332
  (ite (= x 210) 127
  (ite (= x 211) 51
  (ite (= x 212) 177
  (ite (= x 213) 282
  (ite (= x 214) 57
  (ite (= x 215) 297
  (ite (= x 216) 110
  (ite (= x 217) 68
  (ite (= x 218) 2
  (ite (= x 219) 268
  (ite (= x 220) 309
  (ite (= x 221) 161
  (ite (= x 222) 342
  (ite (= x 223) 194
  (ite (= x 224) 129
  (ite (= x 225) 273
  (ite (= x 226) 281
  (ite (= x 227) 41
  (ite (= x 228) 216
  (ite (= x 229) 292
  (ite (= x 230) 206
  (ite (= x 231) 75
  (ite (= x 232) 288
  (ite (= x 233) 210
  (ite (= x 234) 237
  (ite (= x 235) 38
  (ite (= x 236) 198
  (ite (= x 237) 220
  (ite (= x 238) 4
  (ite (= x 239) 259
  (ite (= x 240) 347
  (ite (= x 241) 74
  (ite (= x 242) 345
  (ite (= x 243) 98
  (ite (= x 244) 66
  (ite (= x 245) 326
  (ite (= x 246) 146
  (ite (= x 247) 34
  (ite (= x 248) 303
  (ite (= x 249) 181
  (ite (= x 250) 205
  (ite (= x 251) 52
  (ite (= x 252) 241
  (ite (= x 253) 225
  (ite (= x 254) 279
  (ite (= x 255) 230
  (ite (= x 256) 212
  (ite (= x 257) 235
  (ite (= x 258) 122
  (ite (= x 259) 28
  (ite (= x 260) 260
  (ite (= x 261) 156
  (ite (= x 262) 255
  (ite (= x 263) 10
  (ite (= x 264) 256
  (ite (= x 265) 321
  (ite (= x 266) 306
  (ite (= x 267) 280
  (ite (= x 268) 302
  (ite (= x 269) 107
  (ite (= x 270) 314
  (ite (= x 271) 33
  (ite (= x 272) 40
  (ite (= x 273) 335
  (ite (= x 274) 171
  (ite (= x 275) 322
  (ite (= x 276) 344
  (ite (= x 277) 8
  (ite (= x 278) 30
  (ite (= x 279) 200
  (ite (= x 280) 204
  (ite (= x 281) 327
  (ite (= x 282) 39
  (ite (= x 283) 144
  (ite (= x 284) 6
  (ite (= x 285) 94
  (ite (= x 286) 336
  (ite (= x 287) 1
  (ite (= x 288) 174
  (ite (= x 289) 349
  (ite (= x 290) 278
  (ite (= x 291) 246
  (ite (= x 292) 276
  (ite (= x 293) 261
  (ite (= x 294) 97
  (ite (= x 295) 106
  (ite (= x 296) 338
  (ite (= x 297) 134
  (ite (= x 298) 131
  (ite (= x 299) 304
  (ite (= x 300) 191
  (ite (= x 301) 128
  (ite (= x 302) 254
  (ite (= x 303) 86
  (ite (= x 304) 126
  (ite (= x 305) 43
  (ite (= x 306) 124
  (ite (= x 307) 333
  (ite (= x 308) 88
  (ite (= x 309) 175
  (ite (= x 310) 71
  (ite (= x 311) 289
  (ite (= x 312) 277
  (ite (= x 313) 62
  (ite (= x 314) 236
  (ite (= x 315) 159
  (ite (= x 316) 180
  (ite (= x 317) 56
  (ite (= x 318) 193
  (ite (= x 319) 231
  (ite (= x 320) 152
  (ite (= x 321) 143
  (ite (= x 322) 21
  (ite (= x 323) 283
  (ite (= x 324) 79
  (ite (= x 325) 298
  (ite (= x 326) 300
  (ite (= x 327) 305
  (ite (= x 328) 286
  (ite (= x 329) 294
  (ite (= x 330) 340
  (ite (= x 331) 343
  (ite (= x 332) 320
  (ite (= x 333) 213
  (ite (= x 334) 132
  (ite (= x 335) 55
  (ite (= x 336) 319
  (ite (= x 337) 16
  (ite (= x 338) 12
  (ite (= x 339) 308
  (ite (= x 340) 307
  (ite (= x 341) 315
  (ite (= x 342) 299
  (ite (= x 343) 195
  (ite (= x 344) 199
  (ite (= x 345) 325
  (ite (= x 346) 103
  (ite (= x 347) 17
  (ite (= x 348) 150
  (ite (= x 349) 245
  (ite (= x 350) 22
  0)))))))))))))))))))))))))))))))))))))))))))))))))))))))))))))))))))))))))))))))))))))))))))))))))))))))))))))))))))))))))))))))))))))))))))))))))))))))))))))))))))))))))))))))))))))))))))))))))))))))))))))))))))))))))))))))))))))))))))))))))))))))))))))))))))))))))))))))))))))))))))))))))))))))))))))))))))))))))))))))))))))))))))))))))))))))))))))))

(declare-fun map (Int) Int)

; co-domain
(assert (forall ((x Int)) (=> (smallnumber x) (number (map x)))))

; monotonicity of mapping
(assert (forall ((x1 Int) (x2 Int))
            (=> (and (smallnumber x1) (smallnumber x2) (< x1 x2))
                (< (map x1) (map x2)))))

; order preservation (includes equality)
(assert (forall ((x1 Int) (x2 Int))
            (=> (and (smallnumber x1) (smallnumber x2) (<= (pf x1) (pf x2)))
                (<= (tf (map x1)) (tf (map x2))))))

(check-sat)
(exit)
